(set-info :smt-lib-version 2.6)
(set-logic LRA)
(set-info :source |
   Monniaux, David; Quantifier Elimination by Lazy Model Enumeration, CAV 2010
|)
(set-info :category "random")
; ./Mjollnir_examples/B6/formula_195.m
(set-info :status unknown)
(assert
 (forall ((|v17:0| Real) )(forall ((|v16:1| Real) )(forall ((|v15:2| Real) )(forall ((|v14:3| Real) )(forall ((|v13:4| Real) )(forall ((|v12:5| Real) )(exists ((|v11:6| Real) )(exists ((|v10:7| Real) )(exists ((|v9:8| Real) )(exists ((|v8:9| Real) )(exists ((|v7:10| Real) )(exists ((|v6:11| Real) )(forall ((|v5:12| Real) )(forall ((|v4:13| Real) )(forall ((|v3:14| Real) )(forall ((|v2:15| Real) )(forall ((|v1:16| Real) )(forall ((|v0:17| Real) )(let ((?x11 (- 5)))
(let ((?x255 10))
(let ((?x528 (* ?x255 |v5:12|)))
(let ((?x209 (- 12)))
(let ((?x926 (* ?x209 |v9:8|)))
(let ((?x234 3))
(let ((?x735 (* ?x234 |v2:15|)))
(let ((?x1294 (+ (+ (+ (* 8 |v13:4|) (* 16 |v15:2|)) ?x735) ?x926)))
(let ((?x84 11))
(let ((?x347 (- 13)))
(let ((?x641 (* ?x347 |v6:11|)))
(let ((?x353 (- 11)))
(let ((?x631 (* ?x353 |v6:11|)))
(let ((?x1280 (+ (+ (* 14 |v17:0|) (* 7 |v3:14|)) (* 0 |v5:12|))))
(let ((?x1286 (+ (+ (+ (+ ?x1280 ?x631) (* 7 |v9:8|)) ?x641) (* (- 19) |v0:17|))))
(let ((?x260 17))
(let ((?x696 (* ?x260 |v5:12|)))
(let ((?x148 13))
(let ((?x825 (* ?x148 |v6:11|)))
(let ((?x280 (- 14)))
(let ((?x765 (* ?x280 |v7:10|)))
(let ((?x1271 (+ (+ (+ (* 4 |v16:1|) (* 18 |v4:13|)) ?x765) (* 5 |v14:3|))))
(let (($x1288 (or (<= (+ (+ (+ ?x1271 ?x825) (* (- 17) |v7:10|)) ?x696) ?x11) (<= ?x1286 ?x84))))
(let ((?x42 (- 16)))
(let ((?x327 (* ?x42 |v11:6|)))
(let ((?x1258 (+ (+ (+ (* ?x260 |v8:9|) (* (- 18) |v17:0|)) ?x327) (* (- 15) |v11:6|))))
(let ((?x1264 (+ (+ (+ ?x1258 (* (- 17) |v10:7|)) (* (- 2) |v17:0|)) (* ?x353 |v12:5|))))
(let ((?x38 (- 9)))
(let ((?x172 20))
(let ((?x775 (* ?x172 |v8:9|)))
(let ((?x21 6))
(let ((?x915 (* ?x21 |v13:4|)))
(let ((?x75 (- 18)))
(let ((?x187 (* ?x75 |v15:2|)))
(let ((?x1247 (+ (+ (* 16 |v12:5|) (* ?x148 |v13:4|)) (* 8 |v3:14|))))
(let (($x1253 (<= (+ (+ (+ (+ ?x1247 ?x187) ?x915) ?x775) (* (- 7) |v3:14|)) ?x38)))
(let ((?x1235 (+ (+ (+ (* 12 |v12:5|) (* ?x234 |v6:11|)) (* ?x38 |v15:2|)) (* (- 3) |v2:15|))))
(let (($x1242 (<= (+ (+ (+ ?x1235 (* ?x209 |v13:4|)) (* ?x11 |v8:9|)) (* ?x21 |v15:2|)) ?x172)))
(let ((?x110 (- 2)))
(let ((?x226 (- 17)))
(let ((?x418 (* ?x226 |v2:15|)))
(let ((?x205 (* ?x42 |v6:11|)))
(let ((?x140 15))
(let ((?x404 (* ?x140 |v12:5|)))
(let ((?x1223 (+ (+ (* 16 |v0:17|) (* (- 1) |v17:0|)) (* ?x226 |v3:14|))))
(let (($x1229 (<= (+ (+ (+ (+ ?x1223 ?x404) (* 14 |v5:12|)) ?x205) ?x418) ?x110)))
(let ((?x160 16))
(let ((?x52 (* ?x42 |v8:9|)))
(let ((?x439 (* ?x38 |v17:0|)))
(let ((?x1211 (+ (+ (+ (* 0 |v11:6|) (* (- 7) |v5:12|)) ?x439) ?x52)))
(let ((?x1217 (+ (+ (+ ?x1211 (* ?x226 |v0:17|)) (* (- 3) |v6:11|)) (* (- 3) |v17:0|))))
(let ((?x281 (* ?x280 |v8:9|)))
(let ((?x58 (- 15)))
(let ((?x619 (* ?x58 |v10:7|)))
(let ((?x1201 (+ (+ (+ (* ?x226 |v11:6|) (* (- 19) |v2:15|)) (* ?x209 |v16:1|)) ?x619)))
(let ((?x1206 (+ (+ (+ ?x1201 (* (- 1) |v0:17|)) ?x281) (* 2 |v8:9|))))
(let (($x1290 (or (or (and (<= ?x1206 ?x234) (<= ?x1217 ?x160)) (and $x1229 $x1242)) (and (or $x1253 (<= ?x1264 ?x260)) $x1288))))
(let (($x1300 (or $x1290 (<= (+ (+ (+ ?x1294 (* 7 |v8:9|)) ?x528) |v4:13|) ?x11))))
(let ((?x30 (- 19)))
(let ((?x556 (* ?x30 |v15:2|)))
(let ((?x709 (* ?x11 |v0:17|)))
(let ((?x1186 (* ?x148 |v13:4|)))
(let ((?x122 0))
(let ((?x503 (* ?x122 |v14:3|)))
(let ((?x1187 (+ (+ (+ (* (- 7) |v8:9|) (* 2 |v15:2|)) ?x503) ?x1186)))
(let ((?x46 12))
(let ((?x671 (* ?x140 |v3:14|)))
(let ((?x79 (- 10)))
(let ((?x138 (* ?x79 |v8:9|)))
(let ((?x106 (- 20)))
(let ((?x323 (* ?x106 |v6:11|)))
(let ((?x1178 (+ (+ (+ (* (- 6) |v5:12|) (* ?x280 |v6:11|)) (* ?x234 |v15:2|)) ?x323)))
(let (($x1193 (and (<= (+ (+ (+ ?x1178 (* ?x172 |v3:14|)) ?x138) ?x671) ?x46) (<= (+ (+ (+ ?x1187 ?x709) (* ?x75 |v16:1|)) ?x556) ?x21))))
(let ((?x71 (- 6)))
(let ((?x561 (* ?x71 |v15:2|)))
(let ((?x1165 (+ (+ (+ (* 4 |v15:2|) (* (- 1) |v5:12|)) ?x561) (* ?x46 |v1:16|))))
(let (($x1172 (<= (+ (+ (+ ?x1165 (* ?x226 |v12:5|)) (* ?x209 |v1:16|)) (* ?x172 |v17:0|)) ?x280)))
(let ((?x135 (- 8)))
(let ((?x757 (* ?x135 |v3:14|)))
(let ((?x167 (* ?x140 |v0:17|)))
(let ((?x1155 (+ (+ (+ (* (- 3) |v9:8|) (* 14 |v7:10|)) ?x167) (* ?x30 |v4:13|))))
(let (($x1161 (<= (+ (+ (+ ?x1155 (* 19 |v17:0|)) ?x757) (* ?x110 |v11:6|)) ?x106)))
(let ((?x429 (* ?x84 |v12:5|)))
(let ((?x173 (* ?x172 |v1:16|)))
(let ((?x155 4))
(let ((?x823 (* ?x155 |v4:13|)))
(let ((?x1143 (+ (+ (+ (* ?x226 |v5:12|) (* ?x21 |v16:1|)) (* 5 |v17:0|)) ?x823)))
(let ((?x241 8))
(let ((?x321 (- 3)))
(let ((?x595 (* ?x321 |v15:2|)))
(let ((?x175 18))
(let ((?x599 (* ?x175 |v4:13|)))
(let ((?x1133 (+ (+ (+ (* ?x46 |v12:5|) (* 2 |v5:12|)) ?x599) (* ?x75 |v12:5|))))
(let (($x1149 (or (<= (+ (+ (+ ?x1133 ?x595) (* ?x38 |v1:16|)) (* ?x79 |v4:13|)) ?x241) (<= (+ (+ (+ ?x1143 (* ?x58 |v0:17|)) ?x173) ?x429) ?x58))))
(let ((?x1119 (+ (+ (+ (* ?x260 |v7:10|) (* ?x58 |v16:1|)) (* ?x71 |v1:16|)) (* ?x135 |v7:10|))))
(let ((?x1125 (+ (+ (+ ?x1119 (* ?x255 |v10:7|)) (* ?x260 |v12:5|)) (* 14 |v6:11|))))
(let ((?x62 (- 4)))
(let ((?x1108 (+ (+ (+ (* ?x140 |v5:12|) (* ?x175 |v15:2|)) (* ?x122 |v16:1|)) (* ?x148 |v4:13|))))
(let (($x1115 (<= (+ (+ (+ ?x1108 (* ?x30 |v12:5|)) (* ?x79 |v17:0|)) (* ?x226 |v16:1|)) ?x62)))
(let ((?x686 (* ?x71 |v12:5|)))
(let ((?x31 (* ?x30 |v1:16|)))
(let ((?x1097 (+ (+ (+ (+ (* ?x58 |v12:5|) (* ?x135 |v5:12|)) (* ?x84 |v17:0|)) ?x31) (* 5 |v3:14|))))
(let ((?x1086 (* ?x260 |v7:10|)))
(let ((?x977 (* ?x11 |v10:7|)))
(let ((?x1085 (+ (+ (+ (+ (* ?x30 |v6:11|) (* ?x260 |v15:2|)) |v12:5|) (* ?x106 |v0:17|)) ?x977)))
(let (($x1101 (and (<= (+ (+ ?x1085 ?x1086) (* ?x234 |v4:13|)) ?x347) (<= (+ (+ ?x1097 ?x686) ?x281) ?x255))))
(let ((?x25 5))
(let ((?x431 (* ?x25 |v1:16|)))
(let ((?x244 19))
(let ((?x492 (* ?x244 |v9:8|)))
(let ((?x249 (* ?x122 |v7:10|)))
(let ((?x508 (* ?x11 |v11:6|)))
(let ((?x1073 (+ (+ (+ (* 2 |v1:16|) (* 7 |v15:2|)) ?x508) (* (- 7) |v4:13|))))
(let ((?x217 2))
(let ((?x389 (* ?x217 |v7:10|)))
(let ((?x485 (* ?x241 |v13:4|)))
(let ((?x1064 (+ (+ (+ (+ (* ?x62 |v6:11|) ?x775) (* ?x135 |v14:3|)) ?x418) (* ?x75 |v14:3|))))
(let (($x1078 (and (<= (+ (+ ?x1064 ?x485) ?x389) ?x260) (<= (+ (+ (+ ?x1073 ?x249) ?x492) ?x431) ?x140))))
(let ((?x262 (* ?x62 |v9:8|)))
(let ((?x1050 (+ (+ (+ (* ?x84 |v16:1|) (* 9 |v1:16|)) (* ?x110 |v12:5|)) (* ?x321 |v0:17|))))
(let ((?x506 (* ?x25 |v5:12|)))
(let ((?x123 (* ?x122 |v12:5|)))
(let ((?x133 (* ?x58 |v14:3|)))
(let ((?x525 (* ?x172 |v2:15|)))
(let ((?x1041 (+ (+ (+ (+ (* ?x209 |v14:3|) (* ?x140 |v10:7|)) (* ?x135 |v11:6|)) ?x525) ?x133)))
(let (($x1057 (and (<= (+ (+ ?x1041 ?x123) ?x506) ?x175) (<= (+ (+ (+ ?x1050 (* ?x148 |v9:8|)) (* ?x155 |v17:0|)) ?x262) ?x172))))
(let ((?x35 (- 1)))
(let ((?x514 (* ?x175 |v13:4|)))
(let ((?x662 (* ?x84 |v9:8|)))
(let ((?x587 (* ?x347 |v2:15|)))
(let ((?x1028 (+ (+ (+ (* ?x79 |v13:4|) (* (- 7) |v11:6|)) (* ?x25 |v4:13|)) ?x587)))
(let ((?x183 14))
(let ((?x16 (- 7)))
(let ((?x633 (* ?x16 |v1:16|)))
(let ((?x220 (* ?x148 |v7:10|)))
(let ((?x1020 (+ (+ (+ (+ (* ?x209 |v2:15|) (* ?x209 |v7:10|)) (* ?x175 |v17:0|)) ?x220) (* ?x75 |v4:13|))))
(let (($x1034 (or (<= (+ (+ ?x1020 ?x633) (* ?x62 |v0:17|)) ?x183) (<= (+ (+ (+ ?x1028 ?x662) ?x514) (* ?x46 |v4:13|)) ?x35))))
(let (($x1196 (and (or (or $x1034 $x1057) (or $x1078 $x1101)) (and (or (or $x1115 (<= ?x1125 ?x353)) $x1149) (or (or $x1161 $x1172) $x1193)))))
(let ((?x293 1))
(let ((?x151 (* ?x25 |v8:9|)))
(let ((?x1002 (* ?x135 |v5:12|)))
(let ((?x1005 (+ (+ (+ (+ (* ?x42 |v17:0|) (* ?x58 |v17:0|)) (* ?x353 |v2:15|)) ?x1002) (* ?x35 |v10:7|))))
(let ((?x721 (* ?x140 |v1:16|)))
(let ((?x827 (* ?x244 |v13:4|)))
(let ((?x994 (+ (+ (+ (+ (* ?x353 |v14:3|) ?x503) (* ?x21 |v11:6|)) (* ?x62 |v16:1|)) (* ?x321 |v4:13|))))
(let (($x1010 (or (<= (+ (+ ?x994 ?x827) ?x721) ?x353) (<= (+ (+ ?x1005 (* ?x172 |v11:6|)) ?x151) ?x293))))
(let ((?x982 (+ (+ (+ (+ (* ?x140 |v11:6|) (* ?x16 |v0:17|)) ?x977) (* ?x321 |v1:16|)) (* ?x160 |v1:16|))))
(let ((?x26 (* ?x25 |v4:13|)))
(let ((?x969 (+ (+ (+ (+ (* ?x84 |v3:14|) (* ?x71 |v9:8|)) (* ?x71 |v13:4|)) |v1:16|) (* ?x244 |v14:3|))))
(let (($x988 (or (<= (+ (+ ?x969 ?x26) (* ?x106 |v14:3|)) ?x244) (<= (+ (+ ?x982 (* ?x21 |v7:10|)) (* ?x11 |v16:1|)) ?x75))))
(let ((?x955 (+ (+ (+ (* ?x75 |v7:10|) (* ?x148 |v1:16|)) (* ?x38 |v5:12|)) (* ?x135 |v10:7|))))
(let ((?x821 (* ?x35 |v16:1|)))
(let ((?x946 (+ (+ (+ (+ (+ ?x599 (* ?x135 |v4:13|)) (* ?x347 |v15:2|)) ?x825) ?x821) (* ?x21 |v5:12|))))
(let (($x962 (and (<= (+ ?x946 (* ?x155 |v9:8|)) ?x71) (<= (+ (+ (+ ?x955 (* ?x255 |v13:4|)) ?x556) (* ?x241 |v17:0|)) ?x244))))
(let ((?x931 (+ (+ (+ (+ ?x485 (* ?x62 |v6:11|)) ?x926) (* ?x321 |v16:1|)) (* ?x175 |v8:9|))))
(let ((?x921 (* ?x35 |v17:0|)))
(let ((?x169 (* ?x106 |v9:8|)))
(let ((?x920 (+ (+ (+ (+ (+ (* ?x30 |v5:12|) ?x721) ?x915) ?x686) (* ?x148 |v5:12|)) ?x169)))
(let (($x937 (and (<= (+ ?x920 ?x921) ?x21) (<= (+ (+ ?x931 (* ?x241 |v2:15|)) (* ?x183 |v13:4|)) ?x16))))
(let ((?x905 (+ (+ (+ (* ?x11 |v5:12|) (* 7 |v4:13|)) (* ?x155 |v5:12|)) (* ?x106 |v17:0|))))
(let (($x912 (<= (+ (+ (+ ?x905 (* ?x79 |v5:12|)) (* ?x234 |v16:1|)) (* ?x241 |v4:13|)) ?x175)))
(let ((?x339 (* ?x244 |v8:9|)))
(let ((?x283 (* ?x234 |v3:14|)))
(let ((?x482 (* ?x175 |v0:17|)))
(let ((?x895 (+ (+ (+ (+ (* ?x160 |v3:14|) (* ?x280 |v3:14|)) (* ?x234 |v13:4|)) ?x482) (* ?x155 |v12:5|))))
(let ((?x289 (* ?x30 |v13:4|)))
(let ((?x476 (* ?x234 |v9:8|)))
(let ((?x715 (* ?x38 |v14:3|)))
(let ((?x883 (+ (+ (+ (+ (* ?x46 |v16:1|) (* ?x155 |v8:9|)) (* ?x183 |v17:0|)) ?x715) ?x476)))
(let ((?x189 (* ?x79 |v1:16|)))
(let ((?x874 (* ?x155 |v15:2|)))
(let ((?x547 (* ?x347 |v3:14|)))
(let ((?x872 (+ (+ (+ (* 9 |v13:4|) ?x31) (* ?x71 |v14:3|)) (* ?x21 |v17:0|))))
(let (($x888 (or (<= (+ (+ (+ ?x872 ?x547) ?x874) ?x189) ?x175) (<= (+ (+ ?x883 ?x289) (* ?x241 |v1:16|)) ?x58))))
(let ((?x65 9))
(let ((?x579 (* ?x46 |v7:10|)))
(let ((?x862 (+ (+ (+ (+ (* ?x11 |v4:13|) (* ?x183 |v3:14|)) (* ?x62 |v14:3|)) ?x579) (* ?x160 |v7:10|))))
(let ((?x469 (* ?x148 |v16:1|)))
(let ((?x87 (* ?x16 |v8:9|)))
(let ((?x308 (* ?x160 |v6:11|)))
(let ((?x851 (+ (+ (+ (+ (* ?x65 |v13:4|) (* ?x353 |v9:8|)) |v12:5|) (* ?x35 |v11:6|)) ?x308)))
(let (($x868 (and (<= (+ (+ ?x851 ?x87) ?x469) ?x347) (<= (+ (+ ?x862 (* ?x353 |v10:7|)) (* ?x353 |v5:12|)) ?x65))))
(let (($x939 (or (and $x868 $x888) (or (or (<= (+ (+ ?x895 ?x283) ?x339) ?x25) $x912) $x937))))
(let ((?x836 (+ (+ (+ (* ?x110 |v4:13|) (* ?x148 |v14:3|)) (* ?x260 |v16:1|)) (* ?x172 |v4:13|))))
(let (($x843 (<= (+ (+ (+ ?x836 (* ?x62 |v3:14|)) (* ?x30 |v11:6|)) (* ?x140 |v7:10|)) ?x217)))
(let ((?x830 (+ (+ (+ (+ (+ (+ ?x482 (* ?x30 |v14:3|)) ?x821) ?x823) ?x825) ?x827) (* ?x62 |v1:16|))))
(let ((?x96 7))
(let ((?x420 (* ?x62 |v16:1|)))
(let ((?x120 (* ?x110 |v4:13|)))
(let ((?x643 (* ?x122 |v4:13|)))
(let ((?x814 (+ (+ (+ (+ (* ?x42 |v7:10|) (* ?x58 |v3:14|)) (* ?x21 |v4:13|)) ?x643) ?x120)))
(let (($x844 (and (and (<= (+ (+ ?x814 (* ?x217 |v16:1|)) ?x420) ?x96) (<= ?x830 ?x16)) $x843)))
(let ((?x72 (* ?x71 |v4:13|)))
(let ((?x360 (* ?x110 |v1:16|)))
(let ((?x248 (* ?x110 |v7:10|)))
(let ((?x804 (+ (+ (+ (+ (* ?x65 |v7:10|) (* ?x62 |v11:6|)) (* ?x175 |v12:5|)) ?x248) |v9:8|)))
(let ((?x287 (* ?x172 |v5:12|)))
(let ((?x94 (* ?x84 |v13:4|)))
(let ((?x793 (+ (+ (+ (+ ?x287 (* ?x175 |v7:10|)) (* ?x58 |v16:1|)) (* ?x226 |v4:13|)) ?x94)))
(let ((?x162 (* ?x71 |v1:16|)))
(let ((?x141 (* ?x140 |v2:15|)))
(let ((?x781 (* ?x347 |v15:2|)))
(let ((?x783 (+ (+ (+ (+ (* ?x353 |v9:8|) (* ?x140 |v17:0|)) (* ?x255 |v9:8|)) ?x781) ?x141)))
(let ((?x773 (* ?x160 |v3:14|)))
(let ((?x335 (* ?x321 |v3:14|)))
(let ((?x772 (+ (+ (+ (+ ?x765 (* ?x160 |v16:1|)) (* ?x175 |v15:2|)) (* ?x135 |v2:15|)) ?x335)))
(let (($x788 (and (<= (+ (+ ?x772 ?x773) ?x775) ?x293) (<= (+ (+ ?x783 (* ?x260 |v9:8|)) ?x162) ?x160))))
(let ((?x455 (* ?x62 |v8:9|)))
(let ((?x572 (* ?x255 |v14:3|)))
(let ((?x760 (+ (+ (+ (+ (* ?x155 |v6:11|) (* ?x347 |v1:16|)) ?x757) (* ?x21 |v12:5|)) ?x572)))
(let (($x799 (or (<= (+ (+ ?x760 ?x455) (* ?x255 |v8:9|)) ?x217) (and $x788 (<= (+ (+ ?x793 ?x287) (* ?x353 |v11:6|)) ?x160)))))
(let (($x1013 (and (and $x799 (and (<= (+ (+ ?x804 ?x360) ?x72) ?x16) $x844)) (and $x939 (or (or $x962 $x988) $x1010)))))
(let ((?x267 (* ?x226 |v4:13|)))
(let ((?x472 (* ?x209 |v8:9|)))
(let ((?x745 (+ (+ (+ (+ ?x283 (* ?x65 |v8:9|)) (* ?x16 |v5:12|)) (* ?x160 |v5:12|)) ?x472)))
(let ((?x733 (* ?x65 |v13:4|)))
(let ((?x732 (+ (+ (+ (+ (* ?x96 |v0:17|) ?x429) (* ?x16 |v5:12|)) (* ?x62 |v17:0|)) |v13:4|)))
(let ((?x184 (* ?x183 |v0:17|)))
(let ((?x107 (* ?x106 |v2:15|)))
(let ((?x722 (+ (+ (+ (+ (* ?x122 |v15:2|) ?x715) (* ?x353 |v2:15|)) (* ?x321 |v5:12|)) ?x721)))
(let (($x738 (or (<= (+ (+ ?x722 ?x107) ?x184) ?x110) (<= (+ (+ ?x732 ?x733) ?x735) ?x175))))
(let ((?x708 (+ (+ (+ (+ ?x335 (* ?x280 |v15:2|)) |v13:4|) (* ?x217 |v15:2|)) (* ?x217 |v9:8|))))
(let ((?x387 (* ?x21 |v3:14|)))
(let ((?x699 (* ?x353 |v9:8|)))
(let ((?x701 (+ (+ (+ (+ (+ (+ ?x389 |v14:3|) |v8:9|) ?x696) (* ?x260 |v13:4|)) ?x699) ?x387)))
(let (($x750 (and (and (and (<= ?x701 ?x58) (<= (+ (+ ?x708 ?x709) ?x587) ?x217)) $x738) (<= (+ (+ ?x745 ?x267) (* ?x234 |v11:6|)) ?x106))))
(let ((?x683 (+ (+ (+ (* ?x280 |v12:5|) (* ?x75 |v0:17|)) (* ?x65 |v16:1|)) (* ?x65 |v14:3|))))
(let ((?x673 (* ?x30 |v5:12|)))
(let ((?x364 (* ?x172 |v0:17|)))
(let ((?x672 (+ (+ (+ (+ (* ?x46 |v16:1|) (* ?x135 |v12:5|)) (* ?x217 |v6:11|)) ?x364) ?x671)))
(let (($x691 (or (<= (+ (+ ?x672 ?x673) (* ?x122 |v17:0|)) ?x135) (<= (+ (+ (+ ?x683 (* ?x260 |v17:0|)) ?x686) (* ?x135 |v1:16|)) ?x30))))
(let ((?x657 (+ (+ (+ (* ?x217 |v15:2|) (* ?x79 |v2:15|)) (* ?x209 |v2:15|)) (* ?x71 |v10:7|))))
(let ((?x649 (* ?x148 |v14:3|)))
(let ((?x49 (* ?x35 |v14:3|)))
(let ((?x647 (+ (+ (+ (+ (* ?x244 |v5:12|) ?x641) ?x643) (* ?x135 |v17:0|)) (* ?x135 |v9:8|))))
(let (($x665 (or (<= (+ (+ ?x647 ?x49) ?x649) ?x183) (<= (+ (+ (+ ?x657 (* ?x280 |v2:15|)) (* ?x21 |v10:7|)) ?x662) ?x38))))
(let ((?x632 (+ (+ (+ (+ (* ?x241 |v8:9|) (* ?x79 |v12:5|)) (* ?x58 |v16:1|)) ?x455) ?x631)))
(let ((?x623 (* ?x62 |v11:6|)))
(let ((?x624 (+ (+ (+ (+ (+ (* ?x62 |v10:7|) (* ?x353 |v0:17|)) ?x619) ?x572) ?x547) ?x623)))
(let (($x638 (or (<= (+ ?x624 ?x287) ?x148) (<= (+ (+ ?x632 ?x633) (* ?x234 |v1:16|)) ?x135))))
(let ((?x406 (* ?x244 |v15:2|)))
(let ((?x611 (* ?x226 |v5:12|)))
(let ((?x613 (+ (+ (+ (+ (+ (+ (* ?x172 |v10:7|) ?x429) ?x31) ?x248) ?x503) ?x611) ?x406)))
(let ((?x198 (* ?x175 |v2:15|)))
(let ((?x601 (* ?x58 |v16:1|)))
(let ((?x603 (+ (+ (+ (+ (+ (* ?x226 |v11:6|) ?x595) (* ?x25 |v13:4|)) ?x599) ?x601) ?x406)))
(let (($x693 (or (or (or (<= (+ ?x603 ?x198) ?x38) (<= ?x613 ?x175)) $x638) (and $x665 $x691))))
(let ((?x584 (+ (+ (+ (+ (* ?x30 |v7:10|) (* ?x79 |v7:10|)) ?x579) (* ?x96 |v2:15|)) (* ?x172 |v9:8|))))
(let ((?x570 (* ?x234 |v15:2|)))
(let ((?x571 (+ (+ (+ (+ (* ?x135 |v12:5|) (* ?x11 |v17:0|)) |v15:2|) (* ?x148 |v1:16|)) ?x570)))
(let (($x590 (and (<= (+ (+ ?x571 ?x572) (* ?x155 |v14:3|)) ?x62) (<= (+ (+ ?x584 (* ?x71 |v7:10|)) ?x587) ?x62))))
(let ((?x200 (* ?x11 |v13:4|)))
(let ((?x560 (+ (+ (+ (+ (+ (* ?x217 |v4:13|) (* ?x280 |v0:17|)) |v5:12|) ?x556) ?x200) (* ?x65 |v15:2|))))
(let ((?x76 (* ?x75 |v17:0|)))
(let ((?x546 (+ (+ (+ (+ (* ?x347 |v9:8|) (* ?x175 |v1:16|)) (* ?x160 |v11:6|)) ?x76) (* ?x25 |v0:17|))))
(let (($x564 (or (<= (+ (+ ?x546 ?x547) (* ?x71 |v6:11|)) ?x321) (<= (+ ?x560 ?x561) ?x260))))
(let ((?x533 (+ (+ (+ (+ (+ ?x525 (* ?x35 |v15:2|)) ?x528) ?x514) |v11:6|) (* ?x11 |v7:10|))))
(let ((?x521 (+ (+ (+ (+ (+ ?x133 ?x514) ?x327) (* ?x353 |v16:1|)) (* ?x65 |v3:14|)) (* ?x217 |v17:0|))))
(let (($x537 (and (<= (+ ?x521 (* ?x234 |v0:17|)) ?x25) (<= (+ ?x533 (* ?x96 |v16:1|)) ?x293))))
(let ((?x511 (+ (+ (+ (+ (+ (+ ?x439 ?x469) ?x503) (* ?x155 |v3:14|)) ?x506) ?x508) (* ?x260 |v11:6|))))
(let ((?x498 (+ (+ (+ (+ (+ |v11:6| |v11:6|) ?x492) (* ?x209 |v12:5|)) (* ?x58 |v5:12|)) (* ?x84 |v2:15|))))
(let (($x592 (and (or (and (<= (+ ?x498 (* ?x172 |v15:2|)) ?x209) (<= ?x511 ?x140)) $x537) (and $x564 $x590))))
(let ((?x483 (+ (+ (+ (+ (* ?x122 |v2:15|) ?x476) (* ?x209 |v17:0|)) (* ?x260 |v16:1|)) ?x482)))
(let ((?x470 (+ (+ (+ (+ (* ?x11 |v17:0|) ?x138) (* ?x122 |v16:1|)) (* ?x353 |v13:4|)) ?x469)))
(let (($x488 (and (<= (+ (+ ?x470 |v0:17|) ?x472) ?x46) (<= (+ (+ ?x483 ?x87) ?x485) ?x241))))
(let ((?x310 (* ?x160 |v9:8|)))
(let ((?x457 (+ (+ (+ (+ (* ?x155 |v3:14|) (* ?x280 |v11:6|)) (* ?x260 |v13:4|)) ?x455) ?x289)))
(let ((?x444 (+ (+ (+ (+ (* ?x38 |v12:5|) ?x323) ?x439) (* ?x11 |v1:16|)) (* ?x226 |v14:3|))))
(let (($x462 (and (<= (+ (+ ?x444 (* ?x38 |v13:4|)) (* ?x244 |v10:7|)) ?x38) (<= (+ (+ ?x457 (* ?x106 |v8:9|)) ?x310) ?x30))))
(let ((?x432 (+ (+ (+ (+ (* ?x79 |v12:5|) (* ?x21 |v2:15|)) (* ?x209 |v0:17|)) ?x429) ?x431)))
(let ((?x417 (+ (+ (+ (+ ?x138 (* ?x58 |v6:11|)) (* ?x353 |v15:2|)) (* ?x175 |v12:5|)) (* ?x38 |v10:7|))))
(let ((?x391 (* ?x71 |v0:17|)))
(let ((?x405 (+ (+ (+ (+ (* ?x135 |v17:0|) (* ?x35 |v9:8|)) (* ?x65 |v16:1|)) ?x391) ?x404)))
(let (($x423 (and (<= (+ (+ ?x405 ?x406) (* ?x75 |v3:14|)) ?x84) (<= (+ (+ ?x417 ?x418) ?x420) ?x160))))
(let (($x593 (or (or (or $x423 (<= (+ (+ ?x432 |v3:14|) ?x107) ?x79)) (and $x462 $x488)) $x592)))
(let ((?x386 (+ (+ (+ (* ?x65 |v3:14|) (* ?x353 |v14:3|)) (* ?x75 |v11:6|)) (* ?x241 |v14:3|))))
(let ((?x373 (+ (+ (+ (+ ?x94 (* ?x183 |v1:16|)) (* ?x35 |v4:13|)) (* ?x160 |v4:13|)) (* ?x65 |v4:13|))))
(let ((?x358 (* ?x217 |v15:2|)))
(let ((?x361 (+ (+ (+ (+ (* ?x71 |v3:14|) (* ?x353 |v15:2|)) (* ?x42 |v10:7|)) ?x358) ?x360)))
(let (($x379 (and (<= (+ (+ ?x361 (* ?x30 |v16:1|)) ?x364) ?x42) (<= (+ (+ ?x373 (* ?x148 |v11:6|)) (* ?x65 |v5:12|)) ?x62))))
(let ((?x343 (* ?x160 |v4:13|)))
(let ((?x344 (+ (+ (+ (+ (+ ?x335 ?x200) (* ?x65 |v11:6|)) ?x339) (* ?x96 |v7:10|)) ?x343)))
(let ((?x330 (+ (+ (+ (+ (+ (* ?x321 |v9:8|) ?x323) (* ?x106 |v16:1|)) ?x327) ?x283) ?x323)))
(let (($x349 (and (<= (+ ?x330 (* ?x96 |v10:7|)) ?x260) (<= (+ ?x344 (* ?x35 |v8:9|)) ?x347))))
(let ((?x218 (* ?x217 |v10:7|)))
(let ((?x313 (* ?x16 |v11:6|)))
(let ((?x316 (+ (+ (+ (+ (+ ?x308 (* ?x79 |v7:10|)) ?x310) (* ?x16 |v10:7|)) ?x313) (* ?x260 |v0:17|))))
(let ((?x303 (* ?x71 |v14:3|)))
(let ((?x302 (+ (+ (+ (+ (* ?x16 |v10:7|) (* ?x155 |v1:16|)) |v9:8|) (* ?x35 |v13:4|)) (* ?x38 |v6:11|))))
(let (($x319 (and (<= (+ (+ ?x302 ?x303) (* ?x209 |v15:2|)) ?x16) (<= (+ ?x316 ?x218) ?x106))))
(let (($x395 (or (and $x319 $x349) (and $x379 (<= (+ (+ (+ ?x386 ?x387) ?x389) ?x391) ?x11)))))
(let ((?x290 (+ (+ (+ (+ (+ (* ?x21 |v12:5|) ?x281) ?x283) (* ?x244 |v4:13|)) ?x287) ?x289)))
(let ((?x270 (* ?x155 |v1:16|)))
(let ((?x271 (+ (+ (+ (+ (+ ?x262 (* ?x255 |v9:8|)) (* ?x140 |v14:3|)) ?x267) |v6:11|) ?x270)))
(let ((?x229 (* ?x79 |v10:7|)))
(let ((?x257 (+ (+ (+ (+ ?x248 ?x249) (* ?x234 |v13:4|)) (* ?x25 |v7:10|)) (* ?x255 |v16:1|))))
(let (($x275 (and (<= (+ (+ ?x257 ?x229) ?x151) ?x260) (<= (+ ?x271 (* ?x255 |v2:15|)) ?x183))))
(let ((?x237 (+ (+ (+ (+ ?x229 (* ?x226 |v17:0|)) (* ?x79 |v7:10|)) (* ?x234 |v13:4|)) |v1:16|)))
(let ((?x223 (+ (+ (+ (+ (+ ?x141 (* ?x209 |v6:11|)) ?x169) ?x218) ?x220) (* ?x175 |v6:11|))))
(let (($x246 (and (<= (+ ?x223 (* ?x35 |v1:16|)) ?x226) (<= (+ (+ ?x237 (* ?x65 |v9:8|)) (* ?x241 |v11:6|)) ?x244))))
(let ((?x145 (* ?x21 |v0:17|)))
(let ((?x206 (+ (+ (+ (+ (+ ?x198 (* ?x75 |v1:16|)) ?x200) (* ?x172 |v16:1|)) ?x145) ?x205)))
(let ((?x188 (+ (+ (+ (+ (* ?x21 |v16:1|) (* ?x75 |v1:16|)) (* ?x84 |v4:13|)) ?x184) ?x187)))
(let ((?x168 (+ (+ (+ (+ (* ?x160 |v12:5|) ?x162) (* ?x35 |v6:11|)) (* ?x42 |v2:15|)) ?x167)))
(let (($x194 (and (<= (+ (+ ?x168 ?x169) ?x173) ?x175) (<= (+ (+ ?x188 ?x189) (* ?x16 |v12:5|)) ?x62))))
(let ((?x152 (+ (+ (+ (+ (+ ?x138 ?x141) (* ?x42 |v14:3|)) ?x145) (* ?x148 |v2:15|)) ?x151)))
(let ((?x132 (+ (+ (+ (+ (+ ?x120 ?x123) |v10:7|) (* ?x58 |v1:16|)) (* ?x58 |v5:12|)) (* ?x46 |v11:6|))))
(let (($x195 (or (or (<= (+ ?x132 ?x133) ?x135) (<= (+ ?x152 (* ?x16 |v14:3|)) ?x155)) $x194)))
(let ((?x108 (+ (+ (+ (+ ?x94 (* ?x96 |v13:4|)) (* ?x35 |v5:12|)) (* ?x46 |v0:17|)) ?x107)))
(let ((?x90 (* ?x84 |v3:14|)))
(let ((?x85 (* ?x84 |v16:1|)))
(let ((?x88 (+ (+ (+ (+ (+ (* ?x21 |v11:6|) ?x72) ?x76) (* ?x79 |v7:10|)) ?x85) ?x87)))
(let (($x117 (and (<= (+ ?x88 ?x90) ?x71) (<= (+ (+ ?x108 (* ?x110 |v8:9|)) (* ?x58 |v9:8|)) ?x58))))
(let ((?x56 (+ (+ (+ (+ (* ?x42 |v2:15|) (* ?x46 |v17:0|)) ?x49) ?x52) (* ?x25 |v6:11|))))
(let ((?x27 (+ (+ (+ (+ |v4:13| (* ?x11 |v12:5|)) (* ?x16 |v2:15|)) (* ?x21 |v14:3|)) ?x26)))
(let (($x67 (and (<= (+ (+ ?x27 ?x31) (* ?x35 |v7:10|)) ?x38) (<= (+ (+ ?x56 (* ?x58 |v4:13|)) (* ?x62 |v12:5|)) ?x65))))
(let (($x397 (or (or (or (or $x67 $x117) $x195) (<= (+ ?x206 (* ?x175 |v10:7|)) ?x209)) (and (and (and $x246 $x275) (<= (+ ?x290 (* ?x217 |v12:5|)) ?x293)) $x395))))
(or (and $x397 (or $x593 (or $x693 $x750))) (or $x1013 (or $x1196 $x1300)))))))))))))))))))))))))))))))))))))))))))))))))))))))))))))))))))))))))))))))))))))))))))))))))))))))))))))))))))))))))))))))))))))))))))))))))))))))))))))))))))))))))))))))))))))))))))))))))))))))))))))))))))))))))))))))))))))))))))))))))))))))))))))))))))))))))))))))))))))))))))))))))))))))))))))))))))))))))))))))))
)
)
)
)
)
)
)
)
)
)
)
)
)
)
)
)
)
)
(check-sat)
(exit)

